outputs/case_413.model.txt
is_fhc_affiliate_and_responsible_and_major_shareholder = False
is_contract_pay_money_or_provide_service_to_counterparty = False
is_purchase_counterparty_real_estate_or_other_assets = False
is_fhc_bank_insurance_securities_subsidiary_and_subsidiary_responsible = False
is_transaction_with_third_party_related_to_counterparty = False
board_approval_ratio = 75
is_counterparty_agent_broker_or_commission_service = False
is_sell_securities_real_estate_or_other_assets_to_counterparty = False
is_fhc_responsible_major_shareholder_sole_partner_or_enterprise_or_representative_group = False
bank_subsidiary_net_worth = -1
board_attendance_ratio = 666667/10000
is_fhc_and_responsible_and_major_shareholder = False
is_invest_or_purchase_issuer_securities = True
is_bank_subsidiary_transferable_time_deposit_certificate = False
bank_subsidiary_single_counterparty_transaction_amount = 6000000
bank_subsidiary_all_counterparty_transaction_amount = 6000000
non_credit_transaction_counterparty = False
securities_exclusion_ok = True
transaction_condition_not_better_than_others = True
bank_subsidiary_single_counterparty_limit_ok = True
bank_subsidiary_all_counterparty_limit_ok = True
transaction_condition_better_than_others = False
non_credit_transaction_condition_met = True
board_approval_met = True
penalty = False
compliance_45_article = True
/0 = [else -> -6000000]